p cnf 14 84
1 2 3 4 5 6 7 0
-1 -2 0
-1 -3 0
-1 -4 0
-1 -5 0
-1 -6 0
-1 -7 0
-2 -3 0
-2 -4 0
-2 -5 0
-2 -6 0
-2 -7 0
-3 -4 0
-3 -5 0
-3 -6 0
-3 -7 0
-4 -5 0
-4 -6 0
-4 -7 0
-5 -6 0
-5 -7 0
-6 -7 0
8 9 10 11 12 13 14 0
-8 -9 0
-8 -10 0
-8 -11 0
-8 -12 0
-8 -13 0
-8 -14 0
-9 -10 0
-9 -11 0
-9 -12 0
-9 -13 0
-9 -14 0
-10 -11 0
-10 -12 0
-10 -13 0
-10 -14 0
-11 -12 0
-11 -13 0
-11 -14 0
-12 -13 0
-12 -14 0
-13 -14 0
-1 -8 0
-2 -9 0
-3 -10 0
-4 -11 0
-5 -12 0
-6 -13 0
-7 -14 0
-1 -9 0
-8 -2 0
-1 -10 0
-8 -3 0
-1 -11 0
-8 -4 0
-1 -12 0
-8 -5 0
-1 -13 0
-8 -6 0
-1 -14 0
-8 -7 0
-2 -10 0
-9 -3 0
-2 -11 0
-9 -4 0
-2 -12 0
-9 -5 0
-2 -14 0
-9 -7 0
-3 -11 0
-10 -4 0
-3 -12 0
-10 -5 0
-3 -13 0
-10 -6 0
-3 -14 0
-10 -7 0
-4 -12 0
-11 -5 0
-4 -13 0
-11 -6 0
-4 -14 0
-11 -7 0
-5 -13 0
-12 -6 0
-5 -14 0
-12 -7 0
-6 -14 0
-13 -7 0
